DIMACS2
20 150 1 53 145 51 131 116 4 143 147 157 84 111 94 83 155 114 14 17 65
p edge 160 649
e 0 147 22.0
e 0 50 1.0
e 0 142 2.0
e 0 129 1.0
e 1 20 48.0
e 1 155 25.0
e 1 63 17.0
e 1 87 37.0
e 2 23 1.0
e 2 63 1.0
e 2 69 1.0
e 3 108 2.0
e 3 18 1.0
e 3 99 2.0
e 3 44 1.0
e 4 64 23.0
e 4 43 24.0
e 4 102 16.0
e 4 130 1.0
e 5 98 1.0
e 5 19 1.0
e 5 151 1.0
e 5 67 1.0
e 6 14 4.0
e 6 67 2.0
e 6 41 1.0
e 6 103 1.0
e 7 56 1.0
e 7 59 3.0
e 7 152 2.0
e 7 134 2.0
e 8 1 16.0
e 8 130 2.0
e 8 68 1.0
e 8 16 1.0
e 9 49 1.0
e 9 48 1.0
e 9 66 1.0
e 10 42 1.0
e 10 37 1.0
e 10 123 1.0
e 10 82 2.0
e 11 124 1.0
e 11 105 1.0
e 11 119 1.0
e 11 29 1.0
e 12 22 1.0
e 12 94 38.0
e 12 30 2.0
e 12 58 1.0
e 13 125 2.0
e 13 47 2.0
e 13 94 25.0
e 13 115 1.0
e 14 73 49.0
e 14 0 46.0
e 14 23 9.0
e 14 111 45.0
e 15 81 1.0
e 15 121 2.0
e 15 97 2.0
e 15 47 1.0
e 16 25 1.0
e 16 155 25.0
e 16 30 1.0
e 16 98 1.0
e 17 138 35.0
e 17 126 21.0
e 17 18 3.0
e 17 39 6.0
e 17 114 25.0
e 17 83 35.0
e 17 131 7.0
e 18 127 1.0
e 18 70 2.0
e 18 46 1.0
e 18 0 1.0
e 19 27 1.0
e 19 24 1.0
e 19 71 1.0
e 19 120 1.0
e 20 73 1.0
e 20 41 2.0
e 20 94 25.0
e 20 50 1.0
e 21 7 2.0
e 21 118 1.0
e 21 90 1.0
e 21 108 3.0
e 22 131 16.0
e 22 119 1.0
e 22 89 1.0
e 22 16 1.0
e 23 19 1.0
e 23 32 1.0
e 23 140 1.0
e 23 112 1.0
e 24 157 11.0
e 24 112 1.0
e 24 50 1.0
e 25 26 2.0
e 25 93 1.0
e 25 85 1.0
e 25 66 1.0
e 26 144 2.0
e 26 65 32.0
e 26 82 1.0
e 26 24 1.0
e 27 75 1.0
e 27 62 1.0
e 27 95 3.0
e 27 5 1.0
e 28 76 2.0
e 28 120 1.0
e 28 54 1.0
e 28 21 1.0
e 29 41 1.0
e 29 27 1.0
e 29 157 11.0
e 29 36 2.0
e 30 131 37.0
e 30 21 1.0
e 30 148 1.0
e 30 63 1.0
e 31 123 1.0
e 31 73 1.0
e 31 106 1.0
e 31 77 1.0
e 32 133 1.0
e 32 152 1.0
e 32 57 1.0
e 32 0 1.0
e 33 119 1.0
e 33 106 1.0
e 33 29 1.0
e 33 100 1.0
e 34 9 1.0
e 34 18 1.0
e 34 101 2.0
e 34 8 1.0
e 35 123 1.0
e 35 97 1.0
e 35 86 1.0
e 35 34 1.0
e 36 141 1.0
e 36 81 1.0
e 36 58 1.0
e 36 152 1.0
e 37 9 1.0
e 37 15 2.0
e 37 13 1.0
e 37 21 1.0
e 38 108 1.0
e 38 53 46.0
e 38 99 1.0
e 38 116 46.0
e 39 19 1.0
e 39 143 41.0
e 39 119 1.0
e 39 16 1.0
e 40 6 1.0
e 40 45 1.0
e 40 141 1.0
e 40 69 1.0
e 41 78 1.0
e 41 157 17.0
e 41 81 1.0
e 41 76 1.0
e 42 0 1.0
e 42 96 1.0
e 42 120 1.0
e 43 122 1.0
e 43 150 28.0
e 43 48 1.0
e 43 60 1.0
e 44 116 26.0
e 44 148 2.0
e 44 112 2.0
e 45 155 5.0
e 45 134 1.0
e 45 147 24.0
e 45 16 1.0
e 46 47 1.0
e 46 65 36.0
e 46 128 2.0
e 46 14 4.0
e 47 145 26.0
e 47 99 1.0
e 47 34 1.0
e 47 78 1.0
e 48 144 1.0
e 48 92 2.0
e 48 86 1.0
e 48 21 1.0
e 49 54 1.0
e 49 61 1.0
e 49 117 1.0
e 49 27 1.0
e 50 96 1.0
e 50 32 1.0
e 50 49 1.0
e 50 105 1.0
e 51 151 8.0
e 51 63 14.0
e 51 47 12.0
e 51 147 25.0
e 51 131 14.0
e 51 83 27.0
e 51 150 36.0
e 51 1 41.0
e 52 69 1.0
e 52 9 1.0
e 52 70 1.0
e 52 129 1.0
e 53 9 42.0
e 53 16 47.0
e 53 93 38.0
e 53 10 21.0
e 54 93 1.0
e 54 43 1.0
e 54 154 1.0
e 54 90 1.0
e 55 120 2.0
e 55 155 6.0
e 55 69 2.0
e 55 91 1.0
e 56 66 1.0
e 56 80 1.0
e 56 129 1.0
e 56 158 1.0
e 57 39 1.0
e 57 7 1.0
e 57 68 1.0
e 57 120 1.0
e 58 112 1.0
e 58 151 1.0
e 58 16 1.0
e 58 53 41.0
e 59 22 2.0
e 59 12 1.0
e 59 132 1.0
e 59 70 2.0
e 60 140 2.0
e 60 32 1.0
e 60 134 1.0
e 60 40 1.0
e 61 16 1.0
e 61 18 1.0
e 61 90 1.0
e 61 109 2.0
e 62 126 1.0
e 62 44 1.0
e 62 52 1.0
e 62 1 41.0
e 63 14 4.0
e 63 4 49.0
e 63 147 3.0
e 63 129 1.0
e 64 90 2.0
e 64 107 1.0
e 64 71 1.0
e 64 14 40.0
e 65 132 35.0
e 65 121 14.0
e 65 86 6.0
e 65 96 14.0
e 66 32 1.0
e 66 99 1.0
e 66 103 1.0
e 66 40 1.0
e 67 55 2.0
e 67 74 1.0
e 67 39 1.0
e 67 21 1.0
e 68 7 1.0
e 68 153 1.0
e 68 113 2.0
e 68 112 1.0
e 69 137 1.0
e 69 0 1.0
e 69 63 1.0
e 69 105 2.0
e 70 40 1.0
e 70 134 1.0
e 70 66 1.0
e 70 17 34.0
e 71 4 19.0
e 71 10 1.0
e 71 157 17.0
e 71 108 2.0
e 72 13 2.0
e 72 82 2.0
e 72 87 1.0
e 72 7 2.0
e 73 60 1.0
e 73 90 1.0
e 73 49 1.0
e 73 24 1.0
e 74 16 1.0
e 74 79 1.0
e 74 38 1.0
e 74 130 1.0
e 75 127 1.0
e 75 58 1.0
e 75 143 4.0
e 75 54 1.0
e 76 129 1.0
e 76 135 3.0
e 76 4 19.0
e 76 106 1.0
e 77 35 1.0
e 77 123 1.0
e 77 81 1.0
e 77 76 2.0
e 78 143 31.0
e 78 82 3.0
e 78 95 1.0
e 78 8 2.0
e 79 140 1.0
e 79 91 1.0
e 79 15 2.0
e 79 13 1.0
e 80 49 1.0
e 80 81 1.0
e 80 41 2.0
e 80 26 2.0
e 81 60 1.0
e 81 57 1.0
e 81 62 1.0
e 81 135 1.0
e 82 143 21.0
e 82 153 1.0
e 82 113 2.0
e 82 77 2.0
e 83 0 5.0
e 83 115 40.0
e 83 113 47.0
e 83 49 5.0
e 83 84 10.0
e 84 10 18.0
e 84 91 34.0
e 84 108 26.0
e 84 1 3.0
e 84 14 43.0
e 84 94 38.0
e 85 52 1.0
e 85 6 1.0
e 85 113 1.0
e 85 48 1.0
e 86 1 48.0
e 86 25 1.0
e 86 63 1.0
e 86 155 19.0
e 87 83 33.0
e 87 11 1.0
e 87 53 38.0
e 87 99 1.0
e 88 89 2.0
e 88 48 1.0
e 88 95 1.0
e 88 84 45.0
e 89 123 2.0
e 89 102 1.0
e 89 158 2.0
e 89 21 2.0
e 90 7 1.0
e 90 37 1.0
e 90 91 1.0
e 90 36 1.0
e 91 46 1.0
e 91 155 1.0
e 91 149 1.0
e 91 151 1.0
e 92 59 1.0
e 92 17 28.0
e 92 139 1.0
e 92 26 2.0
e 93 118 1.0
e 93 72 1.0
e 93 65 5.0
e 93 147 19.0
e 94 37 47.0
e 94 6 6.0
e 94 75 42.0
e 94 132 47.0
e 95 48 1.0
e 95 32 1.0
e 95 6 1.0
e 95 120 2.0
e 96 74 1.0
e 96 128 1.0
e 96 7 2.0
e 97 116 15.0
e 97 135 1.0
e 97 83 7.0
e 97 154 1.0
e 98 155 28.0
e 98 53 24.0
e 98 56 1.0
e 98 137 1.0
e 99 41 2.0
e 99 40 1.0
e 99 59 1.0
e 99 101 1.0
e 100 123 1.0
e 100 152 1.0
e 100 101 1.0
e 100 138 1.0
e 101 45 1.0
e 101 13 1.0
e 101 65 35.0
e 101 9 2.0
e 102 28 1.0
e 102 141 1.0
e 102 111 7.0
e 102 29 2.0
e 103 150 36.0
e 103 96 1.0
e 103 104 1.0
e 103 65 21.0
e 104 19 1.0
e 104 84 44.0
e 104 106 1.0
e 104 150 38.0
e 105 120 1.0
e 105 123 2.0
e 105 143 13.0
e 105 74 2.0
e 106 158 1.0
e 106 86 1.0
e 106 107 1.0
e 106 55 2.0
e 107 31 1.0
e 107 93 1.0
e 107 45 1.0
e 107 78 1.0
e 108 39 3.0
e 108 82 1.0
e 108 52 2.0
e 108 57 3.0
e 109 67 1.0
e 109 35 1.0
e 109 40 1.0
e 109 157 47.0
e 110 155 10.0
e 110 115 2.0
e 110 48 1.0
e 110 136 1.0
e 111 90 39.0
e 111 87 39.0
e 111 4 12.0
e 111 137 6.0
e 111 83 1.0
e 112 135 1.0
e 112 65 28.0
e 112 129 1.0
e 112 140 2.0
e 113 97 1.0
e 113 20 2.0
e 113 66 2.0
e 113 79 2.0
e 114 42 6.0
e 114 96 33.0
e 114 62 37.0
e 114 22 14.0
e 114 51 43.0
e 114 145 11.0
e 114 84 24.0
e 115 22 1.0
e 115 151 1.0
e 115 35 1.0
e 116 89 39.0
e 116 70 12.0
e 116 136 30.0
e 116 0 11.0
e 116 145 17.0
e 116 17 7.0
e 117 100 2.0
e 117 114 10.0
e 117 126 2.0
e 117 10 2.0
e 118 88 1.0
e 118 60 1.0
e 118 107 1.0
e 118 45 1.0
e 119 85 1.0
e 119 66 2.0
e 119 78 1.0
e 119 92 2.0
e 120 61 1.0
e 120 150 23.0
e 120 37 1.0
e 120 48 1.0
e 121 42 1.0
e 121 56 2.0
e 121 54 1.0
e 121 7 2.0
e 122 73 3.0
e 122 14 21.0
e 122 106 2.0
e 122 91 1.0
e 123 138 1.0
e 123 102 1.0
e 123 16 1.0
e 123 18 1.0
e 124 15 1.0
e 124 38 1.0
e 124 34 1.0
e 124 13 2.0
e 125 8 1.0
e 125 133 2.0
e 125 88 1.0
e 125 65 10.0
e 126 34 1.0
e 126 54 1.0
e 126 56 1.0
e 126 15 2.0
e 127 81 1.0
e 127 115 1.0
e 127 124 1.0
e 128 132 1.0
e 128 124 2.0
e 128 157 10.0
e 128 144 2.0
e 129 113 1.0
e 129 38 1.0
e 129 158 1.0
e 129 101 1.0
e 130 79 2.0
e 130 5 2.0
e 130 70 1.0
e 130 9 1.0
e 131 140 4.0
e 131 7 25.0
e 131 3 20.0
e 131 85 43.0
e 132 140 2.0
e 132 99 1.0
e 132 120 3.0
e 132 18 1.0
e 133 11 1.0
e 133 126 1.0
e 133 105 1.0
e 133 124 1.0
e 134 124 1.0
e 134 119 2.0
e 134 22 2.0
e 134 12 2.0
e 135 6 1.0
e 135 94 48.0
e 135 19 1.0
e 135 48 1.0
e 136 60 1.0
e 136 144 1.0
e 136 151 1.0
e 136 86 2.0
e 137 59 1.0
e 137 35 1.0
e 137 124 2.0
e 137 29 1.0
e 138 106 1.0
e 138 49 1.0
e 138 1 8.0
e 138 53 31.0
e 139 56 1.0
e 139 36 1.0
e 139 7 2.0
e 139 106 1.0
e 140 9 2.0
e 140 152 3.0
e 140 93 2.0
e 140 154 2.0
e 141 100 1.0
e 141 97 1.0
e 141 153 1.0
e 141 96 1.0
e 142 11 1.0
e 142 94 39.0
e 142 38 3.0
e 142 96 1.0
e 143 112 29.0
e 143 2 25.0
e 143 102 29.0
e 143 27 37.0
e 144 103 1.0
e 144 53 38.0
e 144 150 4.0
e 144 125 1.0
e 145 51 6.0
e 145 85 12.0
e 145 154 27.0
e 145 71 49.0
e 145 111 16.0
e 145 147 37.0
e 146 158 1.0
e 146 74 1.0
e 146 143 12.0
e 147 157 12.0
e 147 15 17.0
e 147 126 12.0
e 147 58 22.0
e 148 131 17.0
e 148 113 1.0
e 148 140 2.0
e 148 121 1.0
e 149 74 1.0
e 149 33 1.0
e 149 34 1.0
e 149 100 1.0
e 150 73 2.0
e 150 4 10.0
e 150 59 14.0
e 150 115 47.0
e 151 32 1.0
e 151 119 1.0
e 151 135 1.0
e 151 118 1.0
e 152 104 1.0
e 152 154 1.0
e 152 64 1.0
e 152 46 1.0
e 153 122 1.0
e 153 99 1.0
e 153 137 1.0
e 153 115 1.0
e 154 144 1.0
e 154 87 1.0
e 154 111 42.0
e 154 28 1.0
e 155 24 34.0
e 155 119 22.0
e 155 5 29.0
e 155 67 33.0
e 156 111 49.0
e 156 79 1.0
e 156 6 1.0
e 156 61 2.0
e 157 45 19.0
e 157 134 44.0
e 157 131 2.0
e 157 135 46.0
e 158 80 1.0
e 158 125 2.0
e 158 110 2.0
e 158 152 1.0
e 159 16 1.0
e 159 120 1.0
e 159 98 1.0
e 159 54 1.0
